33D32945 STP File, STP Format Version 1.0

SECTION Comments
Name "shell_n13_d2_s32"
Problem "Euclidean Steiner Tree Problem"
Remark "Generated with STPGenerator. 2 dimensions."
END

SECTION Graph
Nodes 13
END

SECTION Coordinates
DD 0 -0.2451257865 0.9694912835
DD 1 0.5979088345 0.8015641120
DD 2 0.9931205020 0.1170968342
DD 3 0.0643186830 0.9979294098
DD 4 0.6111021557 -0.7915517388
DD 5 -0.5472309581 -0.8369816476
DD 6 -0.4531136125 -0.8914527773
DD 7 -0.8810375753 0.4730462883
DD 8 0.5423148210 0.8401753596
DD 9 -0.9477324488 0.3190661458
DD 10 -0.8043112392 0.5942082383
DD 11 -0.2376008392 0.9713628782
DD 12 0.7581188098 -0.6521164545
END
